66
6
0 7 8 11 12 13 14 16 17 20 21 22 24 25 26 27 28 29 30 33 34 35 36 37 38 39 40 41 42 43 44 45 46 47 48 49 50 51 54 55 56 57 58 59 60 62 63
1 6 11 12 13 16 17 19 20 21 24 27 28 29 31 33 34 36 38 40 41 42 43 44 45 46 48 50 51 53 54 58 61 62 63 64 65
2 7 9 14 17 19 21 24 25 29 33 34 37 42 43 44 46 48 49 50 51 53 55 57 59 60 65
3 11 16 17 18 22 25 30 35 38 39 40 41 45 49 51 53 57 59 61
4 6 7 10 11 15 16 24 28 29 30 31 34 37 40 41 42 44 46 47 60 62 65
5 13 19 22 23 27 32 36 39 52 53 56 57 60 61
